auto-dp/workflow/scripts/PACE2017-TrackA/5x5.gr
p tw 25 80
18 17
21 16
4 9
22 17
14 13
5 10
8 9
17 12
9 8
19 18
13 8
15 14
6 11
18 19
14 15
9 10
11 16
24 19
7 12
20 15
3 8
22 21
17 16
13 12
25 20
16 17
18 23
12 13
22 23
23 22
14 19
9 14
10 15
13 14
24 23
20 19
23 24
6 1
19 20
24 25
25 24
16 21
12 17
8 13
7 2
13 18
5 4
21 22
17 18
19 24
15 20
14 9
20 25
10 5
1 2
2 1
3 2
11 6
2 3
17 22
12 7
3 4
4 3
8 3
10 9
1 6
18 13
4 5
23 18
9 4
19 14
2 7
15 10
6 7
7 6
12 11
8 7
11 12
16 11
7 8
